NAME Nazareth
ROWS
 N  OBJ
 L  ROW1    
 L  ROW2    
COLUMNS
    CLNAM1    OBJ       1
    CLNAM1    ROW1      2
    CLNAM2    OBJ       -1
    CLNAM2    ROW2      4
    CLNAM3    OBJ       1
    CLNAM3    ROW1      3
    CLNAM3    ROW2      5
RHS
    RHS1      ROW1      10
    RHS1      ROW2      20
BOUNDS
 UP BND1      CLNAM1    100
 FR BND1      CLNAM3  
ENDATA
